<instance format="XCSP3" type="CSP">
  <variables>
    <array id="labels" note="instance variables" size="[32]"> 1..32 </array>
  </variables>
  <constraints>
    <allDifferent> labels[] </allDifferent>
    <intension> eq(labels[15],16) </intension>
    <group>
      <extension type="hybrid-1">
        <list> %0 %1 </list>
        <supports> (1,2..10)(1,24..32)(2,1)(2,3..11)(2,25..32)(3,1..2)(3,4..12)(3,26..32)(4,1..3)(4,5..13)(4,27..32)(5,1..4)(5,6..14)(5,28..32)(6,1..5)(6,7..15)(6,29..32)(7,1..6)(7,8..16)(7,30..32)(8,1..7)(8,9..17)(8,31..32)(9,1..8)(9,10..18)(9,32)(10,1..9)(10,11..19)(11,2..10)(11,12..20)(12,3..11)(12,13..21)(13,4..12)(13,14..22)(14,5..13)(14,15..23)(15,6..14)(15,16..24)(16,7..15)(16,17..25)(17,8..16)(17,18..26)(18,9..17)(18,19..27)(19,10..18)(19,20..28)(20,11..19)(20,21..29)(21,12..20)(21,22..30)(22,13..21)(22,23..31)(23,14..22)(23,24..32)(24,15..23)(24,25..32)(24,1)(25,16..24)(25,26..32)(25,1..2)(26,17..25)(26,27..32)(26,1..3)(27,18..26)(27,28..32)(27,1..4)(28,19..27)(28,29..32)(28,1..5)(29,20..28)(29,30..32)(29,1..6)(30,21..29)(30,31..32)(30,1..7)(31,22..30)(31,32)(31,1..8)(32,23..31)(32,1..9) </supports>
      </extension>
      <args> labels[0] labels[6] </args>
      <args> labels[0] labels[13] </args>
      <args> labels[0] labels[15] </args>
      <args> labels[1] labels[8] </args>
      <args> labels[1] labels[21] </args>
      <args> labels[1] labels[22] </args>
      <args> labels[1] labels[26] </args>
      <args> labels[1] labels[30] </args>
      <args> labels[2] labels[5] </args>
      <args> labels[2] labels[22] </args>
      <args> labels[2] labels[27] </args>
      <args> labels[2] labels[29] </args>
      <args> labels[2] labels[30] </args>
      <args> labels[3] labels[7] </args>
      <args> labels[3] labels[8] </args>
      <args> labels[3] labels[9] </args>
      <args> labels[3] labels[20] </args>
      <args> labels[3] labels[23] </args>
      <args> labels[3] labels[25] </args>
      <args> labels[3] labels[27] </args>
      <args> labels[4] labels[16] </args>
      <args> labels[4] labels[19] </args>
      <args> labels[4] labels[23] </args>
      <args> labels[4] labels[30] </args>
      <args> labels[5] labels[10] </args>
      <args> labels[5] labels[14] </args>
      <args> labels[5] labels[25] </args>
      <args> labels[6] labels[13] </args>
      <args> labels[6] labels[15] </args>
      <args> labels[6] labels[17] </args>
      <args> labels[6] labels[20] </args>
      <args> labels[6] labels[23] </args>
      <args> labels[7] labels[15] </args>
      <args> labels[7] labels[16] </args>
      <args> labels[7] labels[21] </args>
      <args> labels[7] labels[31] </args>
      <args> labels[8] labels[9] </args>
      <args> labels[8] labels[29] </args>
      <args> labels[9] labels[21] </args>
      <args> labels[9] labels[26] </args>
      <args> labels[9] labels[28] </args>
      <args> labels[10] labels[11] </args>
      <args> labels[10] labels[16] </args>
      <args> labels[10] labels[24] </args>
      <args> labels[10] labels[25] </args>
      <args> labels[10] labels[27] </args>
      <args> labels[10] labels[29] </args>
      <args> labels[11] labels[13] </args>
      <args> labels[11] labels[18] </args>
      <args> labels[11] labels[20] </args>
      <args> labels[12] labels[17] </args>
      <args> labels[12] labels[18] </args>
      <args> labels[12] labels[20] </args>
      <args> labels[14] labels[26] </args>
      <args> labels[14] labels[28] </args>
      <args> labels[14] labels[29] </args>
      <args> labels[15] labels[16] </args>
      <args> labels[15] labels[17] </args>
      <args> labels[15] labels[20] </args>
      <args> labels[15] labels[21] </args>
      <args> labels[15] labels[22] </args>
      <args> labels[15] labels[23] </args>
      <args> labels[15] labels[25] </args>
      <args> labels[15] labels[26] </args>
      <args> labels[16] labels[31] </args>
      <args> labels[17] labels[18] </args>
      <args> labels[17] labels[21] </args>
      <args> labels[17] labels[22] </args>
      <args> labels[17] labels[25] </args>
      <args> labels[17] labels[26] </args>
      <args> labels[17] labels[27] </args>
      <args> labels[18] labels[24] </args>
      <args> labels[18] labels[29] </args>
      <args> labels[18] labels[30] </args>
      <args> labels[18] labels[31] </args>
      <args> labels[19] labels[20] </args>
      <args> labels[19] labels[25] </args>
      <args> labels[20] labels[25] </args>
      <args> labels[20] labels[27] </args>
      <args> labels[20] labels[31] </args>
      <args> labels[21] labels[28] </args>
      <args> labels[22] labels[28] </args>
      <args> labels[22] labels[29] </args>
      <args> labels[23] labels[25] </args>
      <args> labels[23] labels[27] </args>
      <args> labels[24] labels[28] </args>
      <args> labels[26] labels[31] </args>
      <args> labels[27] labels[29] </args>
      <args> labels[27] labels[31] </args>
      <args> labels[30] labels[31] </args>
    </group>
  </constraints>
</instance>
